
Gurobi 8.1.1 (mac64, Python) logging started Thu Jun  4 16:17:12 2020


--------------------------------------------
Warning: your license will expire in 2 days
--------------------------------------------

Academic license - for non-commercial use only

Gurobi 8.1.1 (mac64, Python) logging started Tue Jun  9 12:10:10 2020


Gurobi 8.1.1 (mac64, Python) logging started Tue Jun  9 12:11:56 2020

Academic license - for non-commercial use only
